1000
1000 1000
1 800 134
2 800 421
3 800 137
4 799 429
5 799 843
6 798 817
7 798 567
8 796 886
9 796 260
10 795 375
11 795 923
12 794 485
13 793 353
14 792 607
15 792 44
16 792 162
17 791 729
18 790 488
19 790 944
20 790 270
21 789 73
22 789 399
23 789 876
24 789 916
25 788 862
26 786 143
27 786 209
28 785 421
29 784 445
30 784 541
31 784 990
32 784 272
33 783 840
34 782 769
35 782 406
36 781 758
37 781 7
38 780 674
39 780 798
40 780 173
41 779 889
42 778 91
43 778 907
44 778 270
45 777 7
46 776 702
47 776 644
48 775 870
49 775 835
50 775 972
51 775 462
52 775 978
53 773 688
54 773 550
55 773 870
56 772 535
57 771 161
58 771 49
59 768 449
60 768 703
61 766 361
62 766 873
63 766 43
64 765 145
65 765 348
66 765 81
67 764 183
68 763 950
69 762 692
70 762 974
71 762 643
72 762 986
73 761 384
74 761 145
75 761 587
76 760 839
77 760 314
78 759 670
79 759 234
80 759 192
81 758 45
82 757 909
83 757 189
84 756 962
85 756 465
86 755 576
87 753 636
88 753 639
89 752 18
90 752 581
91 751 644
92 750 491
93 749 841
94 749 21
95 749 714
96 749 854
97 748 3
98 748 290
99 748 178
100 747 591
101 747 101
102 746 179
103 746 976
104 746 797
105 745 910
106 744 978
107 744 114
108 743 429
109 742 545
110 742 958
111 742 698
112 741 966
113 741 203
114 741 410
115 740 481
116 740 198
117 739 407
118 739 393
119 738 60
120 736 717
121 735 241
122 734 87
123 734 194
124 733 127
125 732 663
126 731 298
127 730 238
128 730 184
129 730 946
130 730 434
131 729 62
132 729 885
133 728 49
134 728 268
135 727 154
136 727 356
137 727 702
138 726 751
139 726 163
140 725 114
141 725 882
142 725 28
143 725 874
144 724 997
145 724 77
146 723 871
147 723 667
148 722 512
149 721 764
150 720 659
151 719 56
152 718 60
153 718 972
154 717 658
155 716 891
156 716 693
157 714 923
158 713 771
159 712 496
160 711 733
161 709 782
162 708 59
163 708 327
164 708 468
165 707 262
166 706 873
167 704 179
168 703 474
169 702 901
170 702 534
171 702 417
172 701 555
173 701 553
174 701 925
175 700 12
176 700 574
177 699 378
178 699 247
179 699 48
180 698 505
181 698 993
182 698 168
183 697 92
184 697 248
185 696 204
186 696 598
187 695 378
188 695 217
189 695 200
190 693 444
191 693 663
192 693 548
193 692 193
194 691 227
195 688 370
196 688 271
197 687 675
198 687 751
199 686 269
200 685 182
201 685 195
202 684 51
203 684 999
204 684 869
205 683 1
206 683 183
207 683 150
208 683 662
209 682 566
210 682 56
211 682 557
212 681 50
213 680 805
214 679 752
215 679 644
216 679 19
217 678 636
218 678 350
219 678 212
220 678 320
221 678 914
222 678 888
223 677 502
224 675 561
225 674 439
226 674 232
227 673 959
228 673 286
229 673 585
230 672 418
231 672 864
232 672 617
233 672 305
234 672 193
235 672 769
236 671 348
237 671 739
238 671 198
239 669 441
240 668 95
241 668 215
242 668 706
243 668 763
244 666 378
245 664 768
246 663 486
247 661 457
248 661 188
249 661 876
250 660 601
251 660 790
252 658 237
253 657 53
254 656 518
255 655 619
256 654 817
257 654 238
258 654 121
259 654 762
260 652 229
261 652 649
262 650 680
263 650 393
264 650 441
265 649 752
266 649 43
267 648 289
268 646 996
269 646 551
270 646 515
271 645 650
272 643 857
273 643 296
274 642 139
275 641 443
276 641 482
277 640 940
278 639 210
279 639 519
280 638 927
281 638 111
282 638 337
283 638 690
284 638 638
285 637 838
286 636 484
287 635 912
288 635 703
289 634 726
290 634 755
291 634 72
292 634 628
293 634 718
294 634 358
295 633 164
296 633 48
297 632 555
298 631 572
299 631 420
300 629 544
301 629 353
302 628 150
303 628 349
304 627 505
305 627 921
306 626 935
307 626 411
308 626 790
309 626 778
310 625 794
311 624 520
312 622 985
313 622 670
314 620 178
315 620 701
316 620 842
317 619 739
318 618 736
319 618 37
320 617 204
321 617 977
322 615 993
323 615 864
324 615 708
325 614 111
326 613 873
327 613 108
328 612 666
329 610 112
330 609 251
331 609 877
332 607 572
333 607 989
334 606 42
335 606 595
336 606 260
337 605 184
338 605 497
339 604 13
340 604 335
341 601 735
342 601 387
343 601 472
344 601 462
345 600 515
346 600 715
347 600 248
348 599 112
349 599 806
350 599 845
351 598 736
352 597 78
353 596 390
354 595 40
355 594 345
356 594 598
357 592 557
358 592 327
359 591 892
360 590 29
361 589 586
362 589 281
363 588 407
364 587 656
365 587 802
366 586 897
367 586 871
368 586 17
369 585 287
370 584 149
371 583 15
372 582 850
373 582 869
374 582 955
375 580 347
376 579 665
377 578 940
378 578 558
379 577 274
380 576 690
381 574 611
382 574 464
383 573 25
384 573 313
385 572 450
386 571 871
387 571 944
388 570 979
389 570 310
390 570 586
391 569 408
392 569 178
393 568 104
394 568 160
395 567 629
396 567 666
397 567 264
398 566 934
399 566 65
400 566 807
401 566 949
402 566 535
403 566 150
404 565 89
405 565 522
406 564 970
407 562 156
408 562 855
409 561 817
410 560 928
411 560 159
412 557 490
413 557 241
414 557 361
415 555 557
416 554 833
417 554 412
418 554 4
419 552 95
420 551 428
421 551 33
422 548 56
423 548 2
424 548 361
425 548 971
426 547 613
427 547 718
428 547 468
429 546 886
430 545 13
431 544 284
432 543 377
433 543 94
434 542 720
435 541 163
436 540 47
437 539 119
438 539 17
439 538 104
440 538 745
441 537 366
442 536 317
443 536 912
444 536 745
445 536 527
446 535 583
447 534 642
448 533 952
449 532 514
450 530 757
451 530 136
452 529 143
453 528 240
454 528 691
455 528 254
456 527 721
457 527 665
458 527 778
459 526 18
460 525 63
461 525 524
462 524 112
463 524 39
464 524 40
465 522 420
466 522 699
467 522 485
468 520 341
469 520 17
470 519 264
471 519 162
472 519 581
473 519 402
474 519 593
475 518 132
476 518 521
477 518 15
478 517 198
479 517 785
480 517 827
481 517 462
482 517 63
483 516 825
484 516 759
485 515 481
486 515 385
487 515 393
488 515 58
489 514 114
490 514 118
491 513 236
492 513 146
493 512 951
494 512 445
495 511 278
496 511 434
497 511 285
498 509 929
499 508 422
500 507 878
501 505 12
502 505 800
503 504 474
504 503 476
505 503 550
506 503 369
507 502 73
508 498 576
509 497 279
510 497 689
511 496 214
512 496 271
513 495 412
514 494 425
515 494 603
516 493 373
517 493 263
518 492 235
519 492 727
520 491 250
521 491 817
522 490 678
523 490 13
524 490 737
525 489 29
526 489 247
527 489 141
528 488 384
529 487 692
530 487 498
531 485 327
532 485 21
533 485 549
534 485 112
535 484 26
536 483 488
537 482 954
538 482 562
539 482 298
540 482 970
541 481 346
542 481 703
543 480 650
544 480 52
545 479 488
546 479 798
547 479 981
548 476 323
549 476 608
550 476 880
551 475 689
552 474 685
553 474 173
554 473 236
555 472 526
556 471 477
557 470 846
558 470 396
559 470 647
560 469 646
561 469 973
562 469 756
563 467 309
564 467 193
565 467 920
566 467 352
567 466 489
568 465 635
569 465 356
570 463 971
571 463 858
572 463 402
573 463 118
574 462 685
575 462 981
576 462 247
577 462 762
578 462 510
579 461 831
580 458 263
581 458 783
582 457 310
583 456 381
584 455 42
585 455 383
586 453 581
587 452 813
588 452 630
589 449 698
590 448 962
591 448 857
592 447 715
593 447 71
594 446 488
595 446 445
596 446 162
597 445 161
598 444 283
599 444 36
600 443 814
601 442 682
602 441 614
603 441 37
604 441 601
605 440 582
606 440 630
607 440 553
608 438 13
609 438 464
610 437 213
611 436 793
612 436 250
613 436 454
614 436 144
615 435 54
616 435 71
617 434 822
618 433 523
619 432 545
620 432 144
621 431 789
622 431 866
623 431 321
624 430 481
625 429 506
626 429 310
627 428 497
628 427 783
629 427 359
630 426 69
631 425 984
632 424 49
633 424 209
634 423 888
635 422 484
636 422 180
637 421 519
638 421 277
639 420 977
640 420 503
641 418 818
642 418 523
643 418 472
644 418 511
645 417 312
646 417 369
647 415 676
648 414 518
649 414 217
650 414 663
651 413 629
652 411 830
653 410 238
654 409 798
655 407 707
656 407 314
657 406 264
658 405 89
659 405 280
660 405 88
661 403 792
662 403 241
663 402 824
664 402 172
665 401 71
666 401 522
667 401 619
668 401 874
669 400 642
670 399 992
671 399 252
672 398 43
673 398 637
674 398 925
675 397 445
676 395 942
677 394 251
678 394 710
679 394 382
680 394 818
681 393 837
682 392 787
683 392 145
684 391 147
685 391 110
686 391 851
687 390 463
688 390 871
689 390 181
690 388 961
691 386 987
692 386 838
693 385 475
694 385 542
695 385 160
696 384 706
697 383 539
698 381 882
699 381 301
700 381 116
701 381 333
702 381 57
703 380 641
704 380 229
705 379 451
706 379 474
707 378 808
708 377 760
709 377 181
710 377 151
711 376 238
712 374 604
713 374 943
714 373 640
715 373 389
716 372 811
717 370 142
718 368 884
719 368 64
720 367 885
721 367 402
722 367 19
723 366 90
724 366 682
725 365 741
726 365 649
727 364 937
728 363 243
729 363 956
730 363 299
731 363 818
732 361 280
733 360 517
734 359 847
735 359 117
736 359 176
737 359 460
738 358 612
739 358 259
740 357 103
741 355 899
742 355 681
743 355 714
744 354 235
745 352 943
746 352 75
747 351 953
748 350 44
749 350 488
750 350 340
751 350 687
752 349 246
753 348 26
754 346 544
755 345 545
756 344 377
757 344 238
758 342 281
759 342 814
760 342 864
761 341 125
762 340 272
763 340 255
764 339 272
765 339 912
766 337 293
767 337 148
768 336 546
769 336 127
770 335 677
771 335 270
772 334 203
773 334 1
774 333 918
775 333 394
776 333 105
777 333 843
778 333 604
779 333 87
780 331 990
781 330 70
782 330 307
783 330 4
784 330 634
785 329 518
786 328 401
787 328 652
788 328 289
789 327 349
790 326 78
791 325 194
792 324 502
793 324 275
794 323 517
795 322 347
796 322 473
797 321 756
798 321 163
799 320 805
800 319 259
801 318 196
802 318 962
803 317 507
804 317 325
805 315 627
806 315 399
807 314 297
808 314 913
809 314 341
810 314 275
811 314 982
812 313 422
813 313 333
814 312 406
815 312 179
816 312 628
817 311 243
818 310 751
819 310 855
820 310 991
821 309 523
822 308 441
823 307 308
824 306 868
825 305 751
826 304 173
827 304 582
828 303 237
829 303 456
830 303 302
831 303 660
832 302 481
833 302 274
834 301 235
835 301 929
836 300 852
837 300 437
838 299 186
839 299 796
840 298 861
841 295 565
842 294 29
843 293 434
844 291 193
845 291 315
846 290 702
847 288 504
848 288 399
849 287 761
850 286 964
851 286 296
852 285 627
853 284 894
854 283 258
855 282 385
856 282 443
857 282 568
858 281 720
859 281 355
860 281 917
861 280 384
862 279 209
863 278 581
864 278 365
865 276 471
866 275 818
867 275 662
868 274 731
869 273 92
870 273 55
871 273 831
872 273 35
873 272 219
874 272 963
875 271 616
876 271 208
877 269 755
878 269 939
879 268 56
880 268 580
881 267 279
882 267 235
883 266 895
884 264 92
885 263 350
886 263 767
887 263 372
888 262 863
889 262 780
890 261 423
891 259 661
892 258 850
893 258 2
894 257 562
895 257 24
896 257 743
897 256 616
898 254 275
899 254 521
900 254 235
901 253 973
902 253 762
903 252 73
904 252 121
905 251 649
906 251 243
907 249 699
908 249 328
909 248 817
910 248 68
911 246 890
912 246 196
913 246 726
914 245 370
915 245 970
916 245 621
917 245 533
918 244 300
919 244 837
920 243 35
921 242 326
922 242 396
923 240 83
924 240 131
925 240 96
926 240 29
927 239 986
928 239 798
929 239 567
930 238 485
931 238 134
932 238 286
933 237 194
934 236 867
935 236 163
936 235 934
937 235 693
938 234 381
939 234 204
940 234 581
941 234 620
942 234 269
943 233 348
944 232 606
945 232 911
946 230 35
947 230 72
948 230 908
949 229 351
950 229 514
951 228 750
952 227 419
953 226 10
954 226 672
955 226 312
956 224 553
957 224 666
958 223 976
959 223 626
960 222 479
961 222 246
962 221 643
963 221 839
964 220 624
965 220 126
966 219 100
967 219 331
968 218 170
969 218 793
970 217 82
971 217 586
972 217 476
973 216 970
974 216 894
975 216 667
976 214 527
977 213 694
978 212 851
979 212 788
980 212 222
981 212 394
982 211 6
983 210 204
984 209 861
985 209 384
986 209 110
987 208 763
988 208 507
989 208 875
990 207 452
991 207 88
992 207 946
993 207 603
994 206 670
995 205 595
996 204 377
997 202 272
998 202 15
999 201 798
1000 201 74
